p tw 256 704
1 33
2 34
3 35
4 36
5 37
6 38
7 39
8 40
9 41
10 42
11 43
12 44
13 45
14 46
15 47
16 48
17 49
18 50
19 51
20 52
21 53
22 54
23 55
24 56
25 57
26 58
27 59
28 60
29 61
30 62
31 63
32 64
33 74
33 99
33 103
33 104
34 115
34 138
34 140
34 141
35 65
35 66
35 67
35 68
36 83
36 111
36 112
36 113
37 103
37 119
37 128
37 131
38 81
38 87
38 114
38 117
39 69
39 77
39 81
39 82
40 129
40 134
40 136
40 137
41 92
41 100
41 105
41 106
42 90
42 107
42 109
42 110
43 69
43 70
43 71
43 72
44 99
44 100
44 101
44 102
45 67
45 132
45 134
45 135
46 86
46 89
46 90
46 91
47 73
47 86
47 87
47 88
48 73
48 74
48 75
48 76
49 96
49 114
49 115
49 116
50 70
50 79
50 107
50 108
51 65
51 118
51 119
51 120
52 97
52 112
52 132
52 133
53 77
53 78
53 79
53 80
54 105
54 128
54 129
54 130
55 66
55 75
55 121
55 124
56 93
56 111
56 125
56 127
57 89
57 96
57 97
57 98
58 94
58 101
58 142
58 144
59 109
59 121
59 122
59 123
60 78
60 83
60 84
60 85
61 71
61 118
61 125
61 126
62 136
62 140
62 142
62 143
63 92
63 93
63 94
63 95
64 84
64 122
64 138
64 139
65 66
65 67
65 68
65 118
65 119
65 120
66 67
66 68
66 75
66 121
66 124
67 68
67 132
67 134
67 135
68 145
68 146
68 147
68 148
69 70
69 71
69 72
69 77
69 81
69 82
70 71
70 72
70 79
70 107
70 108
71 72
71 118
71 125
71 126
72 149
72 150
72 151
72 152
73 74
73 75
73 76
73 86
73 87
73 88
74 75
74 76
74 99
74 103
74 104
75 76
75 121
75 124
76 153
76 154
76 155
76 156
77 78
77 79
77 80
77 81
77 82
78 79
78 80
78 83
78 84
78 85
79 80
79 107
79 108
80 157
80 158
80 159
80 160
81 82
81 87
81 114
81 117
82 149
82 157
82 161
82 162
83 84
83 85
83 111
83 112
83 113
84 85
84 122
84 138
84 139
85 158
85 163
85 164
85 165
86 87
86 88
86 89
86 90
86 91
87 88
87 114
87 117
88 153
88 166
88 167
88 168
89 90
89 91
89 96
89 97
89 98
90 91
90 107
90 109
90 110
91 166
91 169
91 170
91 171
92 93
92 94
92 95
92 100
92 105
92 106
93 94
93 95
93 111
93 125
93 127
94 95
94 101
94 142
94 144
95 172
95 173
95 174
95 175
96 97
96 98
96 114
96 115
96 116
97 98
97 112
97 132
97 133
98 169
98 176
98 177
98 178
99 100
99 101
99 102
99 103
99 104
100 101
100 102
100 105
100 106
101 102
101 142
101 144
102 179
102 180
102 181
102 182
103 104
103 119
103 128
103 131
104 154
104 179
104 183
104 184
105 106
105 128
105 129
105 130
106 172
106 180
106 185
106 186
107 108
107 109
107 110
108 150
108 159
108 187
108 188
109 110
109 121
109 122
109 123
110 170
110 187
110 189
110 190
111 112
111 113
111 125
111 127
112 113
112 132
112 133
113 163
113 191
113 192
113 193
114 115
114 116
114 117
115 116
115 138
115 140
115 141
116 176
116 194
116 195
116 196
117 161
117 167
117 194
117 197
118 119
118 120
118 125
118 126
119 120
119 128
119 131
120 145
120 198
120 199
120 200
121 122
121 123
121 124
122 123
122 138
122 139
123 189
123 201
123 202
123 203
124 146
124 155
124 201
124 204
125 126
125 127
126 151
126 198
126 205
126 206
127 173
127 191
127 205
127 207
128 129
128 130
128 131
129 130
129 134
129 136
129 137
130 185
130 208
130 209
130 210
131 183
131 199
131 208
131 211
132 133
132 134
132 135
133 177
133 192
133 212
133 213
134 135
134 136
134 137
135 147
135 212
135 214
135 215
136 137
136 140
136 142
136 143
137 209
137 214
137 216
137 217
138 139
138 140
138 141
139 164
139 202
139 218
139 219
140 141
140 142
140 143
141 195
141 218
141 220
141 221
142 143
142 144
143 216
143 220
143 222
143 223
144 174
144 181
144 222
144 224
145 146
145 147
145 148
145 198
145 199
145 200
146 147
146 148
146 155
146 201
146 204
147 148
147 212
147 214
147 215
148 254
149 150
149 151
149 152
149 157
149 161
149 162
150 151
150 152
150 159
150 187
150 188
151 152
151 198
151 205
151 206
152 246
153 154
153 155
153 156
153 166
153 167
153 168
154 155
154 156
154 179
154 183
154 184
155 156
155 201
155 204
156 241
157 158
157 159
157 160
157 161
157 162
158 159
158 160
158 163
158 164
158 165
159 160
159 187
159 188
160 236
161 162
161 167
161 194
161 197
162 250
163 164
163 165
163 191
163 192
163 193
164 165
164 202
164 218
164 219
165 229
166 167
166 168
166 169
166 170
166 171
167 168
167 194
167 197
168 242
169 170
169 171
169 176
169 177
169 178
170 171
170 187
170 189
170 190
171 243
172 173
172 174
172 175
172 180
172 185
172 186
173 174
173 175
173 191
173 205
173 207
174 175
174 181
174 222
174 224
175 226
176 177
176 178
176 194
176 195
176 196
177 178
177 192
177 212
177 213
178 232
179 180
179 181
179 182
179 183
179 184
180 181
180 182
180 185
180 186
181 182
181 222
181 224
182 245
183 184
183 199
183 208
183 211
184 256
185 186
185 208
185 209
185 210
186 248
187 188
187 189
187 190
188 239
189 190
189 201
189 202
189 203
190 247
191 192
191 193
191 205
191 207
192 193
192 212
192 213
193 253
194 195
194 196
194 197
195 196
195 218
195 220
195 221
196 240
197 251
198 199
198 200
198 205
198 206
199 200
199 208
199 211
200 238
201 202
201 203
201 204
202 203
202 218
202 219
203 230
204 234
205 206
205 207
206 228
207 233
208 209
208 210
208 211
209 210
209 214
209 216
209 217
210 235
211 252
212 213
212 214
212 215
213 237
214 215
214 216
214 217
215 244
216 217
216 220
216 222
216 223
217 249
218 219
218 220
218 221
219 225
220 221
220 222
220 223
221 255
222 223
222 224
223 227
224 231
